NAME : optical-integer.pruned_local_16.0.tour
COMMENT : Length = 0
TYPE : TOUR
DIMENSION : 174
TOUR_SECTION
1
3
4
6
9
12
174
92
99
95
106
110
112
104
105
107
109
108
101
133
132
130
100
134
138
140
139
137
124
123
128
122
121
120
117
119
118
115
116
114
103
113
111
96
126
93
90
129
76
49
27
29
31
33
32
30
28
26
136
25
135
47
50
52
53
51
88
89
87
86
54
55
57
58
60
61
62
64
66
68
70
72
74
97
59
125
10
161
75
78
80
82
84
85
83
81
79
77
73
71
69
67
65
63
167
42
162
7
163
35
36
34
98
145
146
148
144
143
147
142
141
159
171
172
102
168
170
166
164
158
155
157
156
48
45
169
154
153
152
151
150
149
160
56
127
91
94
14
16
18
20
23
24
22
165
21
19
17
15
13
11
8
5
37
38
40
43
173
44
131
46
41
39
2
-1
EOF
